150
100
68
44
61
50
46
75
32
32
63
45
23
47
48
74
48
22
77
53
40
32
35
51
60
59
68
74
61
53
32
75
45
40
50
28
47
49
67
65
73
65
62
22
53
35
68
36
48
50
75
75
51
37
22
79
77
31
75
60
69
26
22
44
36
20
31
33
78
32
27
42
28
76
34
64
70
61
32
47
35
39
77
61
42
32
39
38
41
75
49
69
35
42
69
23
59
32
70
44
45
53
68
56
42
42
46
30
35
55
76
42
76
42
27
32
57
40
20
25
62
52
44
56
40
26
38
78
67
30
36
75
58
63
51
65
39
61
61
80
76
28
55
31
62
55
49
28
48
23
76
20
